minimize
obj: 335.67840576171875 x_1,1_ + 446.1894226074219 x_2,1_ + 332.78973388671875 x_3,1_ + 299.6864929199219 x_4,1_ + 72 x_5,1_ + 391.0818176269531 x_6,1_ + 269.0074462890625 x_1,2_ + 363.0674743652344 x_2,2_ + 330.96826171875 x_3,2_ + 224.21641540527344 x_4,2_ + 175.9346466064453 x_5,2_ + 345.0130310058594 x_6,2_ + 329.6012878417969 x_1,3_ + 350.55670166015625 x_2,3_ + 483.95867919921875 x_3,3_ + 279.8302917480469 x_4,3_ + 383 x_5,3_ + 430.0906982421875 x_6,3_ + 216.00926208496094 x_1,4_ + 336.20379638671875 x_2,4_ + 35.735137939453125 x_3,4_ + 233.8546600341797 x_4,4_ + 296.5467834472656 x_5,4_ + 177.5528106689453 x_6,4_ + 251.24688720703125 x_1,5_ + 310.0064392089844 x_2,5_ + 378.27239990234375 x_3,5_ + 199.9124755859375 x_4,5_ + 283.917236328125 x_5,5_ + 346 x_6,5_ + 307.1481628417969 x_1,6_ + 418.0011901855469 x_2,6_ + 99.04039764404297 x_3,6_ + 331.40911865234375 x_4,6_ + 356.5445251464844 x_5,6_ + 245.4893035888672 x_6,6_ + 283.1766357421875 x_1,7_ + 371.3354187011719 x_2,7_ + 113.29607391357422 x_3,7_ + 320.8005676269531 x_4,7_ + 436.13873291015625 x_5,7_ + 196.0867156982422 x_6,7_ + 15 x_1,8_ + 115.31695556640625 x_2,8_ + 215.34158325195312 x_3,8_ + 62.07253646850586 x_4,8_ + 390.749267578125 x_5,8_ + 97.62171936035156 x_6,8_ + 217.8003692626953 x_1,9_ + 336.8233947753906 x_2,9_ + 222.6566925048828 x_3,9_ + 189.27493286132812 x_4,9_ + 158.142333984375 x_5,9_ + 267.1666259765625 x_6,9_ + 332.6334228515625 x_1,10_ + 431.6225280761719 x_2,10_ + 134.01492309570312 x_3,10_ + 364.0782775878906 x_4,10_ + 419.1336364746094 x_5,10_ + 255.4094696044922 x_6,10_
subject to
use_branch_1,1_: 1 x_1,1_ - 1 y_1_ <= 0
use_branch_2,1_: 1 x_1,2_ - 1 y_1_ <= 0
use_branch_3,1_: 1 x_1,3_ - 1 y_1_ <= 0
use_branch_4,1_: 1 x_1,4_ - 1 y_1_ <= 0
use_branch_5,1_: 1 x_1,5_ - 1 y_1_ <= 0
use_branch_6,1_: 1 x_1,6_ - 1 y_1_ <= 0
use_branch_7,1_: 1 x_1,7_ - 1 y_1_ <= 0
use_branch_8,1_: 1 x_1,8_ - 1 y_1_ <= 0
use_branch_9,1_: 1 x_1,9_ - 1 y_1_ <= 0
use_branch_10,1_: 1 x_1,10_ - 1 y_1_ <= 0
use_branch_1,2_: 1 x_2,1_ - 1 y_2_ <= 0
use_branch_2,2_: 1 x_2,2_ - 1 y_2_ <= 0
use_branch_3,2_: 1 x_2,3_ - 1 y_2_ <= 0
use_branch_4,2_: 1 x_2,4_ - 1 y_2_ <= 0
use_branch_5,2_: 1 x_2,5_ - 1 y_2_ <= 0
use_branch_6,2_: 1 x_2,6_ - 1 y_2_ <= 0
use_branch_7,2_: 1 x_2,7_ - 1 y_2_ <= 0
use_branch_8,2_: 1 x_2,8_ - 1 y_2_ <= 0
use_branch_9,2_: 1 x_2,9_ - 1 y_2_ <= 0
use_branch_10,2_: 1 x_2,10_ - 1 y_2_ <= 0
use_branch_1,3_: 1 x_3,1_ - 1 y_3_ <= 0
use_branch_2,3_: 1 x_3,2_ - 1 y_3_ <= 0
use_branch_3,3_: 1 x_3,3_ - 1 y_3_ <= 0
use_branch_4,3_: 1 x_3,4_ - 1 y_3_ <= 0
use_branch_5,3_: 1 x_3,5_ - 1 y_3_ <= 0
use_branch_6,3_: 1 x_3,6_ - 1 y_3_ <= 0
use_branch_7,3_: 1 x_3,7_ - 1 y_3_ <= 0
use_branch_8,3_: 1 x_3,8_ - 1 y_3_ <= 0
use_branch_9,3_: 1 x_3,9_ - 1 y_3_ <= 0
use_branch_10,3_: 1 x_3,10_ - 1 y_3_ <= 0
use_branch_1,4_: 1 x_4,1_ - 1 y_4_ <= 0
use_branch_2,4_: 1 x_4,2_ - 1 y_4_ <= 0
use_branch_3,4_: 1 x_4,3_ - 1 y_4_ <= 0
use_branch_4,4_: 1 x_4,4_ - 1 y_4_ <= 0
use_branch_5,4_: 1 x_4,5_ - 1 y_4_ <= 0
use_branch_6,4_: 1 x_4,6_ - 1 y_4_ <= 0
use_branch_7,4_: 1 x_4,7_ - 1 y_4_ <= 0
use_branch_8,4_: 1 x_4,8_ - 1 y_4_ <= 0
use_branch_9,4_: 1 x_4,9_ - 1 y_4_ <= 0
use_branch_10,4_: 1 x_4,10_ - 1 y_4_ <= 0
use_branch_1,5_: 1 x_5,1_ - 1 y_5_ <= 0
use_branch_2,5_: 1 x_5,2_ - 1 y_5_ <= 0
use_branch_3,5_: 1 x_5,3_ - 1 y_5_ <= 0
use_branch_4,5_: 1 x_5,4_ - 1 y_5_ <= 0
use_branch_5,5_: 1 x_5,5_ - 1 y_5_ <= 0
use_branch_6,5_: 1 x_5,6_ - 1 y_5_ <= 0
use_branch_7,5_: 1 x_5,7_ - 1 y_5_ <= 0
use_branch_8,5_: 1 x_5,8_ - 1 y_5_ <= 0
use_branch_9,5_: 1 x_5,9_ - 1 y_5_ <= 0
use_branch_10,5_: 1 x_5,10_ - 1 y_5_ <= 0
use_branch_1,6_: 1 x_6,1_ - 1 y_6_ <= 0
use_branch_2,6_: 1 x_6,2_ - 1 y_6_ <= 0
use_branch_3,6_: 1 x_6,3_ - 1 y_6_ <= 0
use_branch_4,6_: 1 x_6,4_ - 1 y_6_ <= 0
use_branch_5,6_: 1 x_6,5_ - 1 y_6_ <= 0
use_branch_6,6_: 1 x_6,6_ - 1 y_6_ <= 0
use_branch_7,6_: 1 x_6,7_ - 1 y_6_ <= 0
use_branch_8,6_: 1 x_6,8_ - 1 y_6_ <= 0
use_branch_9,6_: 1 x_6,9_ - 1 y_6_ <= 0
use_branch_10,6_: 1 x_6,10_ - 1 y_6_ <= 0
risk_1,1_: 5 x_1,1_ <= 23
risk_2,1_: 9 x_1,2_ <= 23
risk_3,1_: 10 x_1,3_ <= 23
risk_4,1_: 11 x_1,4_ <= 23
risk_5,1_: 8 x_1,5_ <= 23
risk_6,1_: 7 x_1,6_ <= 23
risk_7,1_: 6 x_1,7_ <= 23
risk_8,1_: 5 x_1,8_ <= 23
risk_9,1_: 4 x_1,9_ <= 23
risk_10,1_: 3 x_1,10_ <= 23
risk_1,2_: 5 x_2,1_ <= 20
risk_2,2_: 9 x_2,2_ <= 20
risk_3,2_: 10 x_2,3_ <= 20
risk_4,2_: 11 x_2,4_ <= 20
risk_5,2_: 8 x_2,5_ <= 20
risk_6,2_: 7 x_2,6_ <= 20
risk_7,2_: 6 x_2,7_ <= 20
risk_8,2_: 5 x_2,8_ <= 20
risk_9,2_: 4 x_2,9_ <= 20
risk_10,2_: 3 x_2,10_ <= 20
risk_1,3_: 5 x_3,1_ <= 22
risk_2,3_: 9 x_3,2_ <= 22
risk_3,3_: 10 x_3,3_ <= 22
risk_4,3_: 11 x_3,4_ <= 22
risk_5,3_: 8 x_3,5_ <= 22
risk_6,3_: 7 x_3,6_ <= 22
risk_7,3_: 6 x_3,7_ <= 22
risk_8,3_: 5 x_3,8_ <= 22
risk_9,3_: 4 x_3,9_ <= 22
risk_10,3_: 3 x_3,10_ <= 22
risk_1,4_: 5 x_4,1_ <= 24
risk_2,4_: 9 x_4,2_ <= 24
risk_3,4_: 10 x_4,3_ <= 24
risk_4,4_: 11 x_4,4_ <= 24
risk_5,4_: 8 x_4,5_ <= 24
risk_6,4_: 7 x_4,6_ <= 24
risk_7,4_: 6 x_4,7_ <= 24
risk_8,4_: 5 x_4,8_ <= 24
risk_9,4_: 4 x_4,9_ <= 24
risk_10,4_: 3 x_4,10_ <= 24
risk_1,5_: 5 x_5,1_ <= 21
risk_2,5_: 9 x_5,2_ <= 21
risk_3,5_: 10 x_5,3_ <= 21
risk_4,5_: 11 x_5,4_ <= 21
risk_5,5_: 8 x_5,5_ <= 21
risk_6,5_: 7 x_5,6_ <= 21
risk_7,5_: 6 x_5,7_ <= 21
risk_8,5_: 5 x_5,8_ <= 21
risk_9,5_: 4 x_5,9_ <= 21
risk_10,5_: 3 x_5,10_ <= 21
risk_1,6_: 5 x_6,1_ <= 20
risk_2,6_: 9 x_6,2_ <= 20
risk_3,6_: 10 x_6,3_ <= 20
risk_4,6_: 11 x_6,4_ <= 20
risk_5,6_: 8 x_6,5_ <= 20
risk_6,6_: 7 x_6,6_ <= 20
risk_7,6_: 6 x_6,7_ <= 20
risk_8,6_: 5 x_6,8_ <= 20
risk_9,6_: 4 x_6,9_ <= 20
risk_10,6_: 3 x_6,10_ <= 20
tol_l_1,1_: -13 x_1,1_ - 10 x_1,2_ - 20 x_1,3_ - 12 x_1,4_ - 19 x_1,5_ - 20 x_1,6_ - 15 x_1,7_ - 18 x_1,8_ - 13 x_1,9_ - 11 x_1,10_ + 25 y_1_ <= 0
tol_l_2,1_: -13 x_2,1_ - 10 x_2,2_ - 20 x_2,3_ - 12 x_2,4_ - 19 x_2,5_ - 20 x_2,6_ - 15 x_2,7_ - 18 x_2,8_ - 13 x_2,9_ - 11 x_2,10_ + 26 y_2_ <= 0
tol_l_3,1_: -13 x_3,1_ - 10 x_3,2_ - 20 x_3,3_ - 12 x_3,4_ - 19 x_3,5_ - 20 x_3,6_ - 15 x_3,7_ - 18 x_3,8_ - 13 x_3,9_ - 11 x_3,10_ + 26.5 y_3_ <= 0
tol_l_4,1_: -13 x_4,1_ - 10 x_4,2_ - 20 x_4,3_ - 12 x_4,4_ - 19 x_4,5_ - 20 x_4,6_ - 15 x_4,7_ - 18 x_4,8_ - 13 x_4,9_ - 11 x_4,10_ + 24.5 y_4_ <= 0
tol_l_5,1_: -13 x_5,1_ - 10 x_5,2_ - 20 x_5,3_ - 12 x_5,4_ - 19 x_5,5_ - 20 x_5,6_ - 15 x_5,7_ - 18 x_5,8_ - 13 x_5,9_ - 11 x_5,10_ + 27 y_5_ <= 0
tol_l_6,1_: -13 x_6,1_ - 10 x_6,2_ - 20 x_6,3_ - 12 x_6,4_ - 19 x_6,5_ - 20 x_6,6_ - 15 x_6,7_ - 18 x_6,8_ - 13 x_6,9_ - 11 x_6,10_ + 25 y_6_ <= 0
tol_l_1,2_: -13 x_1,1_ - 10 x_1,2_ - 20 x_1,3_ - 12 x_1,4_ - 19 x_1,5_ - 20 x_1,6_ - 15 x_1,7_ - 18 x_1,8_ - 13 x_1,9_ - 11 x_1,10_ + 22.5 y_1_ <= 0
tol_l_2,2_: -13 x_2,1_ - 10 x_2,2_ - 20 x_2,3_ - 12 x_2,4_ - 19 x_2,5_ - 20 x_2,6_ - 15 x_2,7_ - 18 x_2,8_ - 13 x_2,9_ - 11 x_2,10_ + 26 y_2_ <= 0
tol_l_3,2_: -13 x_3,1_ - 10 x_3,2_ - 20 x_3,3_ - 12 x_3,4_ - 19 x_3,5_ - 20 x_3,6_ - 15 x_3,7_ - 18 x_3,8_ - 13 x_3,9_ - 11 x_3,10_ + 23 y_3_ <= 0
tol_l_4,2_: -13 x_4,1_ - 10 x_4,2_ - 20 x_4,3_ - 12 x_4,4_ - 19 x_4,5_ - 20 x_4,6_ - 15 x_4,7_ - 18 x_4,8_ - 13 x_4,9_ - 11 x_4,10_ + 25.5 y_4_ <= 0
tol_l_5,2_: -13 x_5,1_ - 10 x_5,2_ - 20 x_5,3_ - 12 x_5,4_ - 19 x_5,5_ - 20 x_5,6_ - 15 x_5,7_ - 18 x_5,8_ - 13 x_5,9_ - 11 x_5,10_ + 25 y_5_ <= 0
tol_l_6,2_: -13 x_6,1_ - 10 x_6,2_ - 20 x_6,3_ - 12 x_6,4_ - 19 x_6,5_ - 20 x_6,6_ - 15 x_6,7_ - 18 x_6,8_ - 13 x_6,9_ - 11 x_6,10_ + 24.5 y_6_ <= 0
tol_l_1,3_: -13 x_1,1_ - 10 x_1,2_ - 20 x_1,3_ - 12 x_1,4_ - 19 x_1,5_ - 20 x_1,6_ - 15 x_1,7_ - 18 x_1,8_ - 13 x_1,9_ - 11 x_1,10_ + 23 y_1_ <= 0
tol_l_2,3_: -13 x_2,1_ - 10 x_2,2_ - 20 x_2,3_ - 12 x_2,4_ - 19 x_2,5_ - 20 x_2,6_ - 15 x_2,7_ - 18 x_2,8_ - 13 x_2,9_ - 11 x_2,10_ + 24.5 y_2_ <= 0
tol_l_3,3_: -13 x_3,1_ - 10 x_3,2_ - 20 x_3,3_ - 12 x_3,4_ - 19 x_3,5_ - 20 x_3,6_ - 15 x_3,7_ - 18 x_3,8_ - 13 x_3,9_ - 11 x_3,10_ + 24 y_3_ <= 0
tol_l_4,3_: -13 x_4,1_ - 10 x_4,2_ - 20 x_4,3_ - 12 x_4,4_ - 19 x_4,5_ - 20 x_4,6_ - 15 x_4,7_ - 18 x_4,8_ - 13 x_4,9_ - 11 x_4,10_ + 23.5 y_4_ <= 0
tol_l_5,3_: -13 x_5,1_ - 10 x_5,2_ - 20 x_5,3_ - 12 x_5,4_ - 19 x_5,5_ - 20 x_5,6_ - 15 x_5,7_ - 18 x_5,8_ - 13 x_5,9_ - 11 x_5,10_ + 22.5 y_5_ <= 0
tol_l_6,3_: -13 x_6,1_ - 10 x_6,2_ - 20 x_6,3_ - 12 x_6,4_ - 19 x_6,5_ - 20 x_6,6_ - 15 x_6,7_ - 18 x_6,8_ - 13 x_6,9_ - 11 x_6,10_ + 25 y_6_ <= 0
tol_u_1,1_: 13 x_1,1_ + 10 x_1,2_ + 20 x_1,3_ + 12 x_1,4_ + 19 x_1,5_ + 20 x_1,6_ + 15 x_1,7_ + 18 x_1,8_ + 13 x_1,9_ + 11 x_1,10_ - 75 y_1_ <= 0
tol_u_2,1_: 13 x_2,1_ + 10 x_2,2_ + 20 x_2,3_ + 12 x_2,4_ + 19 x_2,5_ + 20 x_2,6_ + 15 x_2,7_ + 18 x_2,8_ + 13 x_2,9_ + 11 x_2,10_ - 78 y_2_ <= 0
tol_u_3,1_: 13 x_3,1_ + 10 x_3,2_ + 20 x_3,3_ + 12 x_3,4_ + 19 x_3,5_ + 20 x_3,6_ + 15 x_3,7_ + 18 x_3,8_ + 13 x_3,9_ + 11 x_3,10_ - 79.5 y_3_ <= 0
tol_u_4,1_: 13 x_4,1_ + 10 x_4,2_ + 20 x_4,3_ + 12 x_4,4_ + 19 x_4,5_ + 20 x_4,6_ + 15 x_4,7_ + 18 x_4,8_ + 13 x_4,9_ + 11 x_4,10_ - 73.5 y_4_ <= 0
tol_u_5,1_: 13 x_5,1_ + 10 x_5,2_ + 20 x_5,3_ + 12 x_5,4_ + 19 x_5,5_ + 20 x_5,6_ + 15 x_5,7_ + 18 x_5,8_ + 13 x_5,9_ + 11 x_5,10_ - 81 y_5_ <= 0
tol_u_6,1_: 13 x_6,1_ + 10 x_6,2_ + 20 x_6,3_ + 12 x_6,4_ + 19 x_6,5_ + 20 x_6,6_ + 15 x_6,7_ + 18 x_6,8_ + 13 x_6,9_ + 11 x_6,10_ - 75 y_6_ <= 0
tol_u_1,2_: 13 x_1,1_ + 10 x_1,2_ + 20 x_1,3_ + 12 x_1,4_ + 19 x_1,5_ + 20 x_1,6_ + 15 x_1,7_ + 18 x_1,8_ + 13 x_1,9_ + 11 x_1,10_ - 67.5 y_1_ <= 0
tol_u_2,2_: 13 x_2,1_ + 10 x_2,2_ + 20 x_2,3_ + 12 x_2,4_ + 19 x_2,5_ + 20 x_2,6_ + 15 x_2,7_ + 18 x_2,8_ + 13 x_2,9_ + 11 x_2,10_ - 78 y_2_ <= 0
tol_u_3,2_: 13 x_3,1_ + 10 x_3,2_ + 20 x_3,3_ + 12 x_3,4_ + 19 x_3,5_ + 20 x_3,6_ + 15 x_3,7_ + 18 x_3,8_ + 13 x_3,9_ + 11 x_3,10_ - 69 y_3_ <= 0
tol_u_4,2_: 13 x_4,1_ + 10 x_4,2_ + 20 x_4,3_ + 12 x_4,4_ + 19 x_4,5_ + 20 x_4,6_ + 15 x_4,7_ + 18 x_4,8_ + 13 x_4,9_ + 11 x_4,10_ - 76.5 y_4_ <= 0
tol_u_5,2_: 13 x_5,1_ + 10 x_5,2_ + 20 x_5,3_ + 12 x_5,4_ + 19 x_5,5_ + 20 x_5,6_ + 15 x_5,7_ + 18 x_5,8_ + 13 x_5,9_ + 11 x_5,10_ - 75 y_5_ <= 0
tol_u_6,2_: 13 x_6,1_ + 10 x_6,2_ + 20 x_6,3_ + 12 x_6,4_ + 19 x_6,5_ + 20 x_6,6_ + 15 x_6,7_ + 18 x_6,8_ + 13 x_6,9_ + 11 x_6,10_ - 73.5 y_6_ <= 0
tol_u_1,3_: 13 x_1,1_ + 10 x_1,2_ + 20 x_1,3_ + 12 x_1,4_ + 19 x_1,5_ + 20 x_1,6_ + 15 x_1,7_ + 18 x_1,8_ + 13 x_1,9_ + 11 x_1,10_ - 69 y_1_ <= 0
tol_u_2,3_: 13 x_2,1_ + 10 x_2,2_ + 20 x_2,3_ + 12 x_2,4_ + 19 x_2,5_ + 20 x_2,6_ + 15 x_2,7_ + 18 x_2,8_ + 13 x_2,9_ + 11 x_2,10_ - 73.5 y_2_ <= 0
tol_u_3,3_: 13 x_3,1_ + 10 x_3,2_ + 20 x_3,3_ + 12 x_3,4_ + 19 x_3,5_ + 20 x_3,6_ + 15 x_3,7_ + 18 x_3,8_ + 13 x_3,9_ + 11 x_3,10_ - 72 y_3_ <= 0
tol_u_4,3_: 13 x_4,1_ + 10 x_4,2_ + 20 x_4,3_ + 12 x_4,4_ + 19 x_4,5_ + 20 x_4,6_ + 15 x_4,7_ + 18 x_4,8_ + 13 x_4,9_ + 11 x_4,10_ - 70.5 y_4_ <= 0
tol_u_5,3_: 13 x_5,1_ + 10 x_5,2_ + 20 x_5,3_ + 12 x_5,4_ + 19 x_5,5_ + 20 x_5,6_ + 15 x_5,7_ + 18 x_5,8_ + 13 x_5,9_ + 11 x_5,10_ - 67.5 y_5_ <= 0
tol_u_6,3_: 13 x_6,1_ + 10 x_6,2_ + 20 x_6,3_ + 12 x_6,4_ + 19 x_6,5_ + 20 x_6,6_ + 15 x_6,7_ + 18 x_6,8_ + 13 x_6,9_ + 11 x_6,10_ - 75 y_6_ <= 0
low_k_1,1_:  <= 0
low_k_2,1_:  <= 1
low_k_3,1_:  <= 0
low_k_4,1_:  <= 0
low_k_5,1_:  <= 0
low_k_1,2_:  <= 0
low_k_2,2_:  <= 1
low_k_3,2_:  <= 0
low_k_4,2_:  <= 0
low_k_5,2_:  <= 0
low_k_1,3_:  <= 0
low_k_2,3_:  <= 1
low_k_3,3_:  <= 0
low_k_4,3_:  <= 0
low_k_5,3_:  <= 0
low_k_1,4_:  <= 0
low_k_2,4_:  <= 1
low_k_3,4_:  <= 0
low_k_4,4_:  <= 0
low_k_5,4_:  <= 0
low_k_1,5_:  <= 0
low_k_2,5_:  <= 1
low_k_3,5_:  <= 0
low_k_4,5_:  <= 0
low_k_5,5_:  <= 0
low_k_1,6_:  <= 0
low_k_2,6_:  <= 1
low_k_3,6_:  <= 0
low_k_4,6_:  <= 0
low_k_5,6_:  <= 0
upp_k_1,1_:  <= 1
upp_k_2,1_:  <= 0
upp_k_3,1_:  <= 0
upp_k_4,1_:  <= 0
upp_k_5,1_:  <= 0
upp_k_1,2_:  <= 1
upp_k_2,2_:  <= 0
upp_k_3,2_:  <= 0
upp_k_4,2_:  <= 0
upp_k_5,2_:  <= 0
upp_k_1,3_:  <= 1
upp_k_2,3_:  <= 0
upp_k_3,3_:  <= 0
upp_k_4,3_:  <= 0
upp_k_5,3_:  <= 0
upp_k_1,4_:  <= 1
upp_k_2,4_:  <= 0
upp_k_3,4_:  <= 0
upp_k_4,4_:  <= 0
upp_k_5,4_:  <= 0
upp_k_1,5_:  <= 1
upp_k_2,5_:  <= 0
upp_k_3,5_:  <= 0
upp_k_4,5_:  <= 0
upp_k_5,5_:  <= 0
upp_k_1,6_:  <= 1
upp_k_2,6_:  <= 0
upp_k_3,6_:  <= 0
upp_k_4,6_:  <= 0
upp_k_5,6_:  <= 0
bu_service_1_: 1 x_1,1_ + 1 x_2,1_ + 1 x_3,1_ + 1 x_4,1_ + 1 x_5,1_ + 1 x_6,1_ = 1
bu_service_2_: 1 x_1,2_ + 1 x_2,2_ + 1 x_3,2_ + 1 x_4,2_ + 1 x_5,2_ + 1 x_6,2_ = 1
bu_service_3_: 1 x_1,3_ + 1 x_2,3_ + 1 x_3,3_ + 1 x_4,3_ + 1 x_5,3_ + 1 x_6,3_ = 1
bu_service_4_: 1 x_1,4_ + 1 x_2,4_ + 1 x_3,4_ + 1 x_4,4_ + 1 x_5,4_ + 1 x_6,4_ = 1
bu_service_5_: 1 x_1,5_ + 1 x_2,5_ + 1 x_3,5_ + 1 x_4,5_ + 1 x_5,5_ + 1 x_6,5_ = 1
bu_service_6_: 1 x_1,6_ + 1 x_2,6_ + 1 x_3,6_ + 1 x_4,6_ + 1 x_5,6_ + 1 x_6,6_ = 1
bu_service_7_: 1 x_1,7_ + 1 x_2,7_ + 1 x_3,7_ + 1 x_4,7_ + 1 x_5,7_ + 1 x_6,7_ = 1
bu_service_8_: 1 x_1,8_ + 1 x_2,8_ + 1 x_3,8_ + 1 x_4,8_ + 1 x_5,8_ + 1 x_6,8_ = 1
bu_service_9_: 1 x_1,9_ + 1 x_2,9_ + 1 x_3,9_ + 1 x_4,9_ + 1 x_5,9_ + 1 x_6,9_ = 1
bu_service_10_: 1 x_1,10_ + 1 x_2,10_ + 1 x_3,10_ + 1 x_4,10_ + 1 x_5,10_ + 1 x_6,10_ = 1
cardinality: 1 y_1_ + 1 y_2_ + 1 y_3_ + 1 y_4_ + 1 y_5_ + 1 y_6_ = 5
Bounds
Binary
x_1,1_
x_2,1_
x_3,1_
x_4,1_
x_5,1_
x_6,1_
x_1,2_
x_2,2_
x_3,2_
x_4,2_
x_5,2_
x_6,2_
x_1,3_
x_2,3_
x_3,3_
x_4,3_
x_5,3_
x_6,3_
x_1,4_
x_2,4_
x_3,4_
x_4,4_
x_5,4_
x_6,4_
x_1,5_
x_2,5_
x_3,5_
x_4,5_
x_5,5_
x_6,5_
x_1,6_
x_2,6_
x_3,6_
x_4,6_
x_5,6_
x_6,6_
x_1,7_
x_2,7_
x_3,7_
x_4,7_
x_5,7_
x_6,7_
x_1,8_
x_2,8_
x_3,8_
x_4,8_
x_5,8_
x_6,8_
x_1,9_
x_2,9_
x_3,9_
x_4,9_
x_5,9_
x_6,9_
x_1,10_
x_2,10_
x_3,10_
x_4,10_
x_5,10_
x_6,10_
y_1_
y_2_
y_3_
y_4_
y_5_
y_6_
End
